proyfinal/src/viki/013/experimentInOfficeAgust.take6.output/d83a77b4-352a-48da-9f45-17922db71de6.als.dat
{'cnf.clauses': '118081',
 'cnf.totvars': '69608',
 'conflict literals': '339',
 'conflicts': '91',
 'decisions': '12967',
 'memused.mb': '16.43',
 'outcome': 'UNSAT',
 'propagations': '105989',
 'restarts': '1',
 'solver.msecs': 37,
 'task.msecs': 144}
