proyfinal/src/viki/013/experimentInOfficeAgust.take6.output/d83a77b4-352a-48da-9f45-17922db71de6.als.out
Reading from standard input... Use '--help' for help.
============================[ Problem Statistics ]=============================
|                                                                             |
|  Number of variables:         69608                                         |
|  Number of clauses:          118081                                         |
|  Parse time:                   0.02 s                                       |
|                                                                             |
============================[ Search Statistics ]==============================
| Conflicts |          ORIGINAL         |          LEARNT          | Progress |
|           |    Vars  Clauses Literals |    Limit  Clauses Lit/Cl |          |
===============================================================================
===============================================================================
restarts              : 1
conflicts             : 91             (2408 /sec)
decisions             : 12967          (0.00 % random) (343079 /sec)
propagations          : 105989         (2804239 /sec)
conflict literals     : 339            (3.69 % deleted)
Memory used           : 16.43 MB
CPU time              : 0.037796 s

UNSATISFIABLE
